letting n =  10
letting blocks =  [[1, 1], [1, 2], [1, 6], [1, 7], [1, 8], [1, 9], [2, 4], [2, 5], [2, 6], [2, 8], [3, 4], [3, 10], [4, 1], [4, 6], [5, 2], [5, 3], [5, 6], [6, 4], [7, 1], [7, 2], [7, 5], [8, 3], [8, 4], [8, 7], [9, 9], [10, 1], [10, 5], [10, 6], [10, 7], [10, 10]]
